# Solution for model GasLib-40
# Objective value = 13.2764820762667
loadshed[innode_1] 0
loadshed[innode_2] 0
loadshed[innode_3] 0
loadshed[innode_4] 0
loadshed[innode_5] 0
loadshed[innode_6] 0
loadshed[innode_7] 0
loadshed[innode_8] 0
loadshed[source_1] -2.8372468375614091e-01
loadshed[source_2] 6.5010050638211636e-02
loadshed[source_3] 3.0269501611714367e-01
loadshed[sink_1] 0
loadshed[sink_2] 0
loadshed[sink_3] 0
loadshed[sink_4] 0
loadshed[sink_5] 0
loadshed[sink_6] 0
loadshed[sink_7] 0
loadshed[sink_8] 0
loadshed[sink_9] 0
loadshed[sink_10] 0
loadshed[sink_11] 0
loadshed[sink_12] 8.1181036899465164e-01
loadshed[sink_13] 0
loadshed[sink_14] 0
loadshed[sink_15] 0
loadshed[sink_16] 0
loadshed[sink_17] 0
loadshed[sink_18] 0
loadshed[sink_19] 0
loadshed[sink_20] 0
loadshed[sink_21] 0
loadshed[sink_22] 0
loadshed[sink_23] 0
loadshed[sink_24] 0
loadshed[sink_25] 0
loadshed[sink_26] 0
loadshed[sink_27] 0
loadshed[sink_28] 0
loadshed[sink_29] 0
flow[source_1,sink_3] 2.0294439184519825e+02
flow[innode_1,sink_16] 1.6354166666666970e+01
flow[innode_6,sink_13] 4.2420280688105052e+00
flow[sink_13,sink_14] -1.2112138597856163e+01
flow[sink_14,sink_10] -2.8466305264522830e+01
flow[sink_25,sink_26] 1.7823012660679552e+02
flow[sink_26,sink_9] 1.5026518459040091e+02
flow[sink_9,sink_18] 1.3391101792373425e+02
flow[sink_26,sink_4] 1.1610775349727977e+01
flow[sink_4,sink_20] -1.6379921521447141e+01
flow[sink_18,sink_6] 1.1755685125706759e+02
flow[sink_25,innode_8] -1.7023605851186190e+02
flow[sink_6,sink_7] 6.8494351257067137e+01
flow[sink_6,sink_22] 3.2708333333333641e+01
flow[sink_7,sink_24] 3.5786017923733304e+01
flow[sink_22,sink_1] 1.6354166666666970e+01
flow[sink_24,sink_21] 1.9431851257066636e+01
flow[sink_21,sink_12] 3.0776845903999690e+00
flow[sink_7,sink_5] 1.6354166666667368e+01
flow[sink_5,sink_17] 0
flow[sink_17,sink_4] -1.1636530204508457e+01
flow[sink_17,sink_8] -4.7176364621582110e+00
flow[sink_3,sink_23] 16.3541666666697
flow[sink_8,sink_20] -2.1071803128824879e+01
flow[sink_25,sink_20] 5.3805891316938784e+01
flow[sink_25,sink_15] -8.2396154147350742e+01
flow[sink_15,sink_29] -9.8750320814017414e+01
flow[sink_29,sink_28] 1.6354166666667879e+01
flow[sink_29,sink_2] 1.6354166666684250e+01
flow[sink_2,sink_15] 0
flow[sink_29,innode_7] -1.4781282081403549e+02
flow[innode_4,sink_19] 93.8829719311899
flow[sink_19,innode_3] 3.7833729720178177e+01
flow[innode_4,innode_5] 1.6354166666679703e+01
flow[sink_27,innode_5] -1.6354166666679703e+01
flow[sink_27,sink_19] 0
flow[sink_10,sink_11] 3.2708333333333641e+01
flow[sink_10,innode_2] -3.9695075544344959e+01
flow[sink_10,innode_3] -3.7833729720178177e+01
flow[innode_6,sink_25] -4.2420280688105052e+00
flow[sink_11,innode_1] 1.6354166666666970e+01
flow[sink_19,innode_2] 3.9695075544344959e+01
flow[source_3,innode_4] 1.1023713859786960e+02
flow[source_2,innode_7] 1.4781282081403549e+02
flow[sink_3,innode_8] 1.7023605851186190e+02
pressure[innode_1] 74.960061595738
pressure[innode_2] 7.7209811591891608e+01
pressure[innode_3] 77.1260330816314
pressure[innode_4] 81.01325
pressure[innode_5] 8.1002000741808772e+01
pressure[innode_6] 7.3767056523265936e+01
pressure[innode_7] 81.01325
pressure[innode_8] 8.0334884425629255e+01
pressure[source_1] 81.01325
pressure[source_2] 81.01325
pressure[source_3] 81.01325
pressure[sink_1] 4.2135158949946536e+01
pressure[sink_2] 7.6645566600821155e+01
pressure[sink_3] 8.0334884425629255e+01
pressure[sink_4] 5.9738189347105667e+01
pressure[sink_5] 3.6494402356502562e+01
pressure[sink_6] 4.4236236560333907e+01
pressure[sink_7] 4.3295972383397277e+01
pressure[sink_8] 59.471488212797
pressure[sink_9] 5.2220654253596983e+01
pressure[sink_10] 7.5111762903341543e+01
pressure[sink_11] 74.960061595738
pressure[sink_12] 1.01325
pressure[sink_13] 7.3743670931431325e+01
pressure[sink_14] 7.3765346635178275e+01
pressure[sink_15] 7.4166758159492275e+01
pressure[sink_16] 7.3938411760920317e+01
pressure[sink_17] 5.9293479532961626e+01
pressure[sink_18] 4.7375354501641318e+01
pressure[sink_19] 7.7209811591891608e+01
pressure[sink_20] 6.0939896552397357e+01
pressure[sink_21] 2.1084586195980610e+00
pressure[sink_22] 4.3198928092301543e+01
pressure[sink_23] 8.0170166413969469e+01
pressure[sink_24] 2.3236483179270531e+00
pressure[sink_25] 7.3767056523265936e+01
pressure[sink_26] 6.1214413375098175e+01
pressure[sink_27] 8.0866291377726043e+01
pressure[sink_28] 7.6764553825667633e+01
pressure[sink_29] 7.7059836099284809e+01
interdiction[source_1,sink_3] 0
interdiction[innode_1,sink_16] 0
interdiction[innode_6,sink_13] 0
interdiction[sink_13,sink_14] 0
interdiction[sink_14,sink_10] 0
interdiction[sink_25,sink_26] 0
interdiction[sink_26,sink_9] 0
interdiction[sink_9,sink_18] 0
interdiction[sink_26,sink_4] 0
interdiction[sink_4,sink_20] 0
interdiction[sink_18,sink_6] 0
interdiction[sink_25,innode_8] 0
interdiction[sink_6,sink_7] 0
interdiction[sink_6,sink_22] 0
interdiction[sink_7,sink_24] 0
interdiction[sink_22,sink_1] 0
interdiction[sink_24,sink_21] 0
interdiction[sink_21,sink_12] 0
interdiction[sink_7,sink_5] 0
interdiction[sink_5,sink_17] 1
interdiction[sink_17,sink_4] 0
interdiction[sink_17,sink_8] 0
interdiction[sink_3,sink_23] 0
interdiction[sink_8,sink_20] 0
interdiction[sink_25,sink_20] 0
interdiction[sink_25,sink_15] 0
interdiction[sink_15,sink_29] 0
interdiction[sink_29,sink_28] 0
interdiction[sink_29,sink_2] 0
interdiction[sink_2,sink_15] 1
interdiction[sink_29,innode_7] 0
interdiction[innode_4,sink_19] 0
interdiction[sink_19,innode_3] 0
interdiction[innode_4,innode_5] 0
interdiction[sink_27,innode_5] 0
interdiction[sink_27,sink_19] 1
interdiction[sink_10,sink_11] 0
interdiction[sink_10,innode_2] 0
interdiction[sink_10,innode_3] 0
interdiction[innode_6,sink_25] 0
interdiction[sink_11,innode_1] 0
interdiction[sink_19,innode_2] 0
interdiction[source_3,innode_4] 0
interdiction[source_2,innode_7] 0
interdiction[sink_3,innode_8] 0
WCcheckFlow[source_1,sink_3] 39
WCcheckFlow[innode_1,sink_16] 1
WCcheckFlow[innode_6,sink_13] 13
WCcheckFlow[sink_13,sink_14] 12
WCcheckFlow[sink_14,sink_10] 11
WCcheckFlow[sink_25,sink_26] 15
WCcheckFlow[sink_26,sink_9] 10
WCcheckFlow[sink_9,sink_18] 9
WCcheckFlow[sink_26,sink_4] 4
WCcheckFlow[sink_4,sink_20] 1
WCcheckFlow[sink_18,sink_6] 8
WCcheckFlow[sink_25,innode_8] -36
WCcheckFlow[sink_6,sink_7] 5
WCcheckFlow[sink_6,sink_22] 2
WCcheckFlow[sink_7,sink_24] 3
WCcheckFlow[sink_22,sink_1] 1
WCcheckFlow[sink_24,sink_21] 2
WCcheckFlow[sink_21,sink_12] 1
WCcheckFlow[sink_7,sink_5] 1
WCcheckFlow[sink_5,sink_17] 0
WCcheckFlow[sink_17,sink_4] -2
WCcheckFlow[sink_17,sink_8] 1
WCcheckFlow[sink_3,sink_23] 1
WCcheckFlow[sink_8,sink_20] 0
WCcheckFlow[sink_25,sink_20] 0
WCcheckFlow[sink_25,sink_15] 6
WCcheckFlow[sink_15,sink_29] 5
WCcheckFlow[sink_29,sink_28] 1
WCcheckFlow[sink_29,sink_2] 1
WCcheckFlow[sink_2,sink_15] 0
WCcheckFlow[sink_29,innode_7] 2
WCcheckFlow[innode_4,sink_19] -4
WCcheckFlow[sink_19,innode_3] -5
WCcheckFlow[innode_4,innode_5] 2
WCcheckFlow[sink_27,innode_5] -1
WCcheckFlow[sink_27,sink_19] 0
WCcheckFlow[sink_10,sink_11] 3
WCcheckFlow[sink_10,innode_2] 1
WCcheckFlow[sink_10,innode_3] 6
WCcheckFlow[innode_6,sink_25] -14
WCcheckFlow[sink_11,innode_1] 2
WCcheckFlow[sink_19,innode_2] 0
WCcheckFlow[source_3,innode_4] -1
WCcheckFlow[source_2,innode_7] -1
WCcheckFlow[sink_3,innode_8] 37
